\ This file has been generated by DOcplex
\ ENCODING=ISO-8859-1
\Problem name: linear_programing_AGV

Minimize
 obj: 0.100000000000 t_out_0_s3 + 0.100000000000 t_out_1_s2
Subject To
 c1: - t_in_0_s2 + t_out_0_s1 <= -6
 c2: - t_in_0_s3 + t_out_0_s2 <= 0
 c3: - t_in_1_s1 + t_out_1_s0 <= -6
 c4: - t_in_1_s2 + t_out_1_s1 <= -6
 c5: t_out_0_s1 - t_out_1_s1 - 20 y_1_0_s1 <= -2
 c6: - t_out_0_s1 + t_out_1_s1 - 20 y_0_1_s1 <= -2
 c7: - t_in_1_s1 + t_out_0_s1 - 20 y_1_0_s1 <= 0
 c8: - t_in_0_s1 + t_out_1_s1 - 20 y_0_1_s1 <= 0
 c9: - t_in_1_s2 + t_out_0_s2 - 20 y_1_0_s2 <= 0
 c10: - t_in_0_s2 + t_out_1_s2 - 20 y_0_1_s2 <= 0
 c11: t_in_0_s1 - t_out_0_s1 <= -2
 c12: t_in_0_s2 - t_out_0_s2 <= -2
 c13: t_in_0_s3 - t_out_0_s3 <= -2
 c14: t_in_1_s0 - t_out_1_s0 <= -2
 c15: t_in_1_s1 - t_out_1_s1 <= -2
 c16: t_in_1_s2 - t_out_1_s2 <= -2
 c17: y_0_1_s1 + y_1_0_s1 = 1
 c18: y_0_1_s2 + y_1_0_s2 = 1
 c19: y_0_1_s1 - y_0_1_s2 = 0
 c20: y_1_0_s1 - y_1_0_s2 = 0

Bounds
 8 <= t_in_0_s1 <= 18
 16 <= t_in_0_s2 <= 26
 18 <= t_in_0_s3 <= 28
       t_in_1_s0 <= 10
 8 <= t_in_1_s1 <= 18
 16 <= t_in_1_s2 <= 26
 10 <= t_out_0_s1 <= 20
 18 <= t_out_0_s2 <= 28
 20 <= t_out_0_s3 <= 30
 2 <= t_out_1_s0 <= 12
 10 <= t_out_1_s1 <= 20
 18 <= t_out_1_s2 <= 28
 0 <= y_0_1_s1 <= 1
 0 <= y_1_0_s1 <= 1
 0 <= y_0_1_s2 <= 1
 0 <= y_1_0_s2 <= 1

Binaries
 y_0_1_s1 y_1_0_s1 y_0_1_s2 y_1_0_s2

Generals
 t_in_0_s1 t_in_0_s2 t_in_0_s3 t_in_1_s0 t_in_1_s1 t_in_1_s2 t_out_0_s1
 t_out_0_s2 t_out_0_s3 t_out_1_s0 t_out_1_s1 t_out_1_s2
End
